
Gurobi 9.1.2 (win64, Java) logging started Tue Nov  9 15:34:39 2021

Academic license - for non-commercial use only - expires 2022-10-30
Gurobi Optimizer version 9.1.2 build v9.1.2rc0 (win64)
Thread count: 6 physical cores, 12 logical processors, using up to 12 threads
Optimize a model with 450 rows, 45000 columns and 90000 nonzeros
Model fingerprint: 0x89c96d3f
Variable types: 0 continuous, 45000 integer (45000 binary)
Coefficient statistics:
  Matrix range     [1e+00, 1e+03]
  Objective range  [2e+00, 1e+03]
  Bounds range     [1e+00, 1e+00]
  RHS range        [1e+00, 1e+03]
Found heuristic solution: objective 86395.000000
Presolve removed 124 rows and 23188 columns
Presolve time: 0.63s
Presolved: 326 rows, 21812 columns, 43618 nonzeros
Variable types: 0 continuous, 21812 integer (21812 binary)
Presolve removed 0 rows and 4 columns
Presolved: 326 rows, 21808 columns, 43614 nonzeros


Root relaxation: objective 8.725795e+04, 258 iterations, 0.02 seconds

    Nodes    |    Current Node    |     Objective Bounds      |     Work
 Expl Unexpl |  Obj  Depth IntInf | Incumbent    BestBd   Gap | It/Node Time

     0     0 87257.9549    0    1 86395.0000 87257.9549  1.00%     -    0s
H    0     0                    86526.000000 87257.9549  0.85%     -    0s
H    0     0                    86541.000000 87257.9549  0.83%     -    0s
H    0     0                    86549.000000 87257.9549  0.82%     -    0s

Cutting planes:
  Cover: 1

Explored 1 nodes (2243 simplex iterations) in 0.88 seconds
Thread count was 12 (of 12 available processors)

Solution count 4: 86549 86541 86526 86395 

Optimal solution found (tolerance 1.00e-04)
Best objective 8.654900000000e+04, best bound 8.654900000000e+04, gap 0.0000%

Gurobi 9.1.2 (win64, Java) logging started Tue Nov  9 15:35:40 2021

Academic license - for non-commercial use only - expires 2022-10-30
Gurobi Optimizer version 9.1.2 build v9.1.2rc0 (win64)
Thread count: 6 physical cores, 12 logical processors, using up to 12 threads
Optimize a model with 450 rows, 45000 columns and 90000 nonzeros
Model fingerprint: 0x89c96d3f
Variable types: 0 continuous, 45000 integer (45000 binary)
Coefficient statistics:
  Matrix range     [1e+00, 1e+03]
  Objective range  [2e+00, 1e+03]
  Bounds range     [1e+00, 1e+00]
  RHS range        [1e+00, 1e+03]
Found heuristic solution: objective 86395.000000
Presolve removed 124 rows and 23188 columns
Presolve time: 0.62s
Presolved: 326 rows, 21812 columns, 43618 nonzeros
Variable types: 0 continuous, 21812 integer (21812 binary)
Presolve removed 0 rows and 4 columns
Presolved: 326 rows, 21808 columns, 43614 nonzeros


Root relaxation: objective 8.725795e+04, 258 iterations, 0.02 seconds

    Nodes    |    Current Node    |     Objective Bounds      |     Work
 Expl Unexpl |  Obj  Depth IntInf | Incumbent    BestBd   Gap | It/Node Time

     0     0 87257.9549    0    1 86395.0000 87257.9549  1.00%     -    0s
H    0     0                    86526.000000 87257.9549  0.85%     -    0s
H    0     0                    86541.000000 87257.9549  0.83%     -    0s
H    0     0                    86549.000000 87257.9549  0.82%     -    0s

Cutting planes:
  Cover: 1

Explored 1 nodes (2243 simplex iterations) in 0.85 seconds
Thread count was 12 (of 12 available processors)

Solution count 4: 86549 86541 86526 86395 

Optimal solution found (tolerance 1.00e-04)
Best objective 8.654900000000e+04, best bound 8.654900000000e+04, gap 0.0000%

Gurobi 9.1.2 (win64, Java) logging started Tue Nov  9 15:36:27 2021

Academic license - for non-commercial use only - expires 2022-10-30
Gurobi Optimizer version 9.1.2 build v9.1.2rc0 (win64)
Thread count: 6 physical cores, 12 logical processors, using up to 12 threads
Optimize a model with 450 rows, 45000 columns and 90000 nonzeros
Model fingerprint: 0x89c96d3f
Variable types: 0 continuous, 45000 integer (45000 binary)
Coefficient statistics:
  Matrix range     [1e+00, 1e+03]
  Objective range  [2e+00, 1e+03]
  Bounds range     [1e+00, 1e+00]
  RHS range        [1e+00, 1e+03]
Found heuristic solution: objective 86395.000000
Presolve removed 124 rows and 23188 columns
Presolve time: 0.67s
Presolved: 326 rows, 21812 columns, 43618 nonzeros
Variable types: 0 continuous, 21812 integer (21812 binary)
Presolve removed 0 rows and 4 columns
Presolved: 326 rows, 21808 columns, 43614 nonzeros


Root relaxation: objective 8.725795e+04, 258 iterations, 0.02 seconds

    Nodes    |    Current Node    |     Objective Bounds      |     Work
 Expl Unexpl |  Obj  Depth IntInf | Incumbent    BestBd   Gap | It/Node Time

     0     0 87257.9549    0    1 86395.0000 87257.9549  1.00%     -    0s
H    0     0                    86526.000000 87257.9549  0.85%     -    0s
H    0     0                    86541.000000 87257.9549  0.83%     -    0s
H    0     0                    86549.000000 87257.9549  0.82%     -    0s

Cutting planes:
  Cover: 1

Explored 1 nodes (2243 simplex iterations) in 0.90 seconds
Thread count was 12 (of 12 available processors)

Solution count 4: 86549 86541 86526 86395 

Optimal solution found (tolerance 1.00e-04)
Best objective 8.654900000000e+04, best bound 8.654900000000e+04, gap 0.0000%

Gurobi 9.1.2 (win64, Java) logging started Tue Nov  9 15:36:57 2021

Academic license - for non-commercial use only - expires 2022-10-30
Gurobi Optimizer version 9.1.2 build v9.1.2rc0 (win64)
Thread count: 6 physical cores, 12 logical processors, using up to 12 threads
Optimize a model with 450 rows, 45000 columns and 90000 nonzeros
Model fingerprint: 0x89c96d3f
Variable types: 0 continuous, 45000 integer (45000 binary)
Coefficient statistics:
  Matrix range     [1e+00, 1e+03]
  Objective range  [2e+00, 1e+03]
  Bounds range     [1e+00, 1e+00]
  RHS range        [1e+00, 1e+03]
Found heuristic solution: objective 86395.000000
Presolve removed 124 rows and 23188 columns
Presolve time: 0.62s
Presolved: 326 rows, 21812 columns, 43618 nonzeros
Variable types: 0 continuous, 21812 integer (21812 binary)
Presolve removed 0 rows and 4 columns
Presolved: 326 rows, 21808 columns, 43614 nonzeros


Root relaxation: objective 8.725795e+04, 258 iterations, 0.02 seconds

    Nodes    |    Current Node    |     Objective Bounds      |     Work
 Expl Unexpl |  Obj  Depth IntInf | Incumbent    BestBd   Gap | It/Node Time

     0     0 87257.9549    0    1 86395.0000 87257.9549  1.00%     -    0s
H    0     0                    86526.000000 87257.9549  0.85%     -    0s
H    0     0                    86541.000000 87257.9549  0.83%     -    0s
H    0     0                    86549.000000 87257.9549  0.82%     -    0s

Cutting planes:
  Cover: 1

Explored 1 nodes (2243 simplex iterations) in 0.85 seconds
Thread count was 12 (of 12 available processors)

Solution count 4: 86549 86541 86526 86395 

Optimal solution found (tolerance 1.00e-04)
Best objective 8.654900000000e+04, best bound 8.654900000000e+04, gap 0.0000%
